65
3 1 8
4 1 6
4 3 11
5 1 1
5 3 5
5 4 3
6 1 13
6 2 2
6 4 13
6 5 10
7 4 7
7 5 7
7 6 5
8 0 12
8 1 9
8 3 3
8 5 8
9 0 9
9 4 1
9 7 6
10 1 1
10 2 12
10 4 9
10 5 2
10 7 13
10 8 7
10 9 7
11 0 10
11 3 12
11 5 1
11 6 8
11 7 6
11 8 9
11 9 9
12 0 2
12 1 7
12 2 12
12 3 10
12 4 9
12 6 13
13 0 2
13 3 9
13 6 1
13 7 13
14 2 10
14 3 1
14 4 8
14 5 12
14 6 8
14 11 9
14 12 12
15 1 13
15 2 5
15 3 4
15 6 4
15 7 8
15 9 4
15 10 8
16 1 9
16 2 12
16 3 7
16 8 12
16 9 7
16 12 10
16 13 3
16 14 1
16 15 13
17 0 2
17 1 3
17 2 1
17 3 10
17 4 10
17 5 12
17 6 8
17 8 3
17 9 6
17 10 1
17 11 4
18 0 13
18 2 4
18 3 3
18 4 7
18 5 8
18 6 13
18 7 6
18 10 12
18 12 13
18 15 5
18 17 1
19 0 4
19 1 2
19 2 9
19 7 10
19 9 2
19 10 2
19 11 3
19 12 6
19 14 13
19 17 11
20 0 1
20 1 9
20 2 12
20 3 12
20 4 3
20 5 5
20 8 7
20 9 1
20 10 5
20 11 3
20 15 6
20 16 1
20 17 1
20 18 11
20 19 4
21 0 1
21 2 6
21 5 13
21 7 4
21 8 2
21 9 1
21 11 8
21 12 12
21 14 4
21 16 3
21 17 12
21 19 3
21 20 10
22 0 6
22 2 9
22 3 12
22 4 7
22 5 8
22 7 6
22 10 8
22 11 5
22 12 7
22 13 13
22 16 2
22 18 9
22 19 3
22 20 12
23 0 10
23 2 2
23 5 1
23 8 12
23 9 7
23 10 11
23 11 12
23 12 13
23 14 11
23 15 7
23 16 8
23 18 11
23 20 11
23 21 5
23 22 3
24 0 2
24 1 9
24 2 12
24 3 11
24 5 4
24 11 1
24 13 3
24 14 10
24 15 3
24 16 10
24 21 9
24 22 1
24 23 10
25 3 2
25 4 11
25 5 3
25 8 9
25 9 6
25 10 2
25 13 2
25 15 9
25 16 6
25 17 7
25 18 4
25 19 13
25 21 12
25 22 3
25 23 7
25 24 3
26 0 2
26 3 10
26 4 10
26 6 3
26 7 13
26 13 3
26 14 11
26 15 11
26 16 9
26 20 9
26 21 13
26 22 6
26 23 7
26 24 13
27 2 5
27 3 1
27 4 11
27 8 1
27 9 7
27 11 7
27 13 8
27 14 2
27 15 13
27 16 12
27 17 10
27 18 7
27 19 6
27 20 7
27 21 1
27 23 12
28 4 2
28 5 13
28 6 11
28 7 8
28 8 11
28 10 3
28 12 3
28 14 4
28 15 11
28 16 9
28 17 12
28 18 2
28 19 5
28 24 6
28 25 11
28 26 10
28 27 9
29 3 13
29 4 4
29 6 2
29 7 12
29 11 10
29 12 2
29 17 4
29 18 13
29 19 13
29 20 7
29 23 2
29 26 1
29 28 3
30 2 5
30 5 5
30 7 2
30 9 11
30 10 3
30 17 12
30 23 7
30 25 11
30 29 12
31 2 12
31 3 13
31 4 8
31 11 12
31 12 7
31 13 2
31 15 11
31 17 4
31 18 10
31 19 7
31 20 5
31 22 3
31 25 7
32 0 13
32 1 8
32 8 10
32 9 1
32 11 2
32 12 5
32 14 9
32 15 11
32 17 6
32 20 9
32 22 10
32 23 10
32 25 13
32 26 4
32 29 11
33 4 5
33 6 10
33 8 6
33 11 4
33 13 1
33 15 12
33 17 13
33 19 12
33 20 10
33 23 10
33 25 5
33 27 4
33 28 6
33 29 4
33 30 5
33 31 3
33 32 1
34 0 11
34 7 7
34 11 7
34 12 4
34 21 5
34 23 5
34 24 6
34 27 12
34 28 6
34 30 2
34 31 1
34 32 2
35 0 1
35 2 11
35 3 7
35 5 10
35 7 7
35 9 13
35 11 13
35 12 7
35 13 11
35 14 5
35 17 7
35 19 10
35 21 11
35 26 10
35 28 9
35 29 12
35 30 2
35 31 11
35 33 10
35 34 1
36 0 9
36 2 8
36 3 7
36 6 6
36 9 1
36 12 10
36 13 7
36 14 4
36 15 13
36 16 1
36 17 8
36 20 6
36 26 3
36 29 11
36 32 11
36 33 5
36 35 11
37 5 5
37 6 6
37 7 8
37 8 9
37 11 2
37 14 1
37 15 1
37 20 8
37 21 3
37 23 12
37 26 9
37 27 13
37 28 1
37 29 8
37 30 1
37 34 5
37 36 11
38 2 5
38 3 8
38 4 11
38 7 4
38 8 5
38 10 8
38 19 8
38 21 8
38 24 5
38 27 9
38 30 9
38 32 1
38 34 6
38 36 6
39 1 5
39 3 7
39 5 4
39 6 4
39 7 2
39 9 1
39 11 1
39 13 4
39 14 9
39 19 9
39 21 11
39 25 1
39 29 5
39 30 11
39 32 8
39 35 9
39 36 2
39 38 12
40 0 3
40 1 9
40 2 12
40 3 9
40 4 8
40 6 10
40 10 8
40 12 4
40 13 6
40 14 8
40 15 5
40 16 5
40 19 12
40 20 4
40 21 10
40 22 8
40 24 7
40 25 2
40 26 7
40 27 6
40 28 6
40 29 11
40 31 12
40 34 11
40 38 13
40 39 10
41 0 5
41 1 8
41 4 3
41 5 5
41 6 3
41 7 5
41 8 12
41 9 11
41 10 4
41 11 7
41 14 4
41 18 10
41 19 12
41 20 4
41 22 10
41 25 10
41 26 12
41 28 4
41 30 8
41 36 1
41 37 1
42 0 2
42 2 8
42 3 11
42 5 8
42 9 8
42 12 4
42 15 11
42 19 12
42 20 2
42 21 7
42 22 12
42 23 6
42 26 11
42 27 8
42 28 13
42 29 1
42 30 7
42 31 13
42 32 2
42 34 8
42 36 2
42 40 5
42 41 13
43 1 5
43 3 5
43 4 12
43 6 9
43 7 2
43 10 2
43 11 3
43 12 11
43 13 11
43 15 9
43 17 1
43 19 13
43 20 8
43 24 12
43 26 2
43 27 4
43 29 9
43 30 1
43 32 6
43 33 11
43 35 9
43 37 10
43 38 2
43 39 2
43 40 11
43 41 1
44 2 6
44 4 2
44 5 4
44 8 10
44 9 7
44 15 8
44 16 1
44 17 7
44 18 8
44 19 9
44 22 10
44 24 2
44 25 11
44 26 13
44 27 8
44 28 11
44 32 10
44 33 13
44 34 5
44 38 12
44 41 2
45 3 9
45 5 2
45 10 1
45 11 1
45 14 13
45 18 13
45 20 4
45 23 5
45 25 9
45 27 7
45 29 1
45 32 13
45 35 6
45 36 2
45 39 7
45 42 2
45 43 8
45 44 4
46 0 13
46 2 5
46 6 2
46 8 10
46 9 12
46 17 9
46 19 6
46 20 13
46 22 9
46 23 5
46 25 5
46 28 11
46 29 10
46 30 9
46 31 13
46 32 1
46 33 4
46 35 12
46 36 1
46 37 8
46 39 11
46 40 13
46 44 10
47 2 13
47 4 2
47 5 1
47 6 11
47 8 11
47 9 11
47 10 6
47 11 10
47 13 5
47 14 4
47 18 6
47 19 3
47 20 4
47 21 5
47 23 12
47 25 7
47 27 4
47 33 3
47 34 6
47 36 8
47 37 6
47 38 10
47 40 1
47 41 11
47 43 8
47 45 8
48 2 13
48 3 2
48 4 11
48 8 8
48 9 4
48 13 13
48 14 1
48 15 11
48 16 3
48 17 9
48 18 4
48 20 2
48 23 12
48 29 11
48 33 8
48 37 5
48 40 13
48 41 8
48 43 9
48 44 4
48 45 4
48 46 13
49 1 13
49 2 12
49 4 5
49 6 12
49 7 5
49 8 3
49 9 9
49 11 7
49 14 9
49 17 11
49 19 9
49 20 8
49 21 3
49 23 5
49 24 2
49 27 9
49 29 8
49 31 1
49 38 12
49 41 12
49 42 1
49 43 10
49 44 11
49 47 6
50 0 3
50 1 8
50 4 4
50 7 6
50 8 10
50 11 11
50 12 13
50 14 13
50 15 11
50 17 5
50 18 10
50 22 11
50 23 10
50 24 7
50 28 6
50 32 6
50 34 2
50 35 10
50 38 5
50 41 11
50 42 5
50 44 1
50 45 10
50 49 6
51 0 4
51 1 7
51 2 13
51 6 6
51 7 3
51 9 11
51 10 12
51 14 8
51 15 3
51 16 4
51 17 8
51 18 13
51 19 3
51 20 13
51 23 13
51 24 4
51 25 5
51 27 5
51 29 11
51 30 13
51 32 5
51 33 1
51 34 6
51 38 2
51 39 11
51 40 9
51 42 3
51 43 5
51 45 3
51 47 11
51 49 6
52 1 9
52 2 6
52 7 3
52 11 1
52 14 4
52 15 2
52 16 10
52 17 6
52 21 10
52 27 5
52 28 12
52 30 3
52 32 12
52 34 4
52 35 2
52 36 8
52 37 3
52 39 6
52 40 3
52 43 3
52 47 9
52 48 3
52 50 3
52 51 13
53 0 6
53 1 3
53 2 5
53 3 6
53 4 1
53 6 11
53 8 6
53 11 5
53 12 12
53 15 3
53 16 5
53 17 9
53 18 11
53 21 9
53 22 5
53 23 8
53 26 10
53 27 10
53 28 10
53 30 9
53 32 7
53 34 9
53 35 10
53 37 10
53 39 2
53 40 8
53 41 8
53 42 9
53 43 7
53 44 11
53 45 9
53 46 12
53 47 9
53 48 9
53 50 2
53 51 13
53 52 4
54 0 13
54 5 11
54 6 9
54 7 9
54 8 4
54 9 5
54 11 5
54 12 12
54 13 3
54 14 11
54 15 1
54 20 11
54 22 11
54 24 11
54 26 9
54 27 1
54 29 9
54 32 9
54 35 10
54 36 2
54 37 13
54 38 1
54 39 6
54 40 3
54 42 9
54 44 2
54 46 1
54 48 12
54 49 9
54 50 12
54 51 10
54 52 2
54 53 12
55 6 10
55 7 1
55 8 5
55 9 12
55 11 13
55 15 9
55 16 13
55 17 5
55 19 8
55 20 13
55 21 3
55 23 12
55 24 3
55 25 9
55 27 6
55 29 13
55 31 11
55 34 8
55 42 9
55 45 7
55 46 2
55 48 11
55 51 5
55 52 5
55 54 11
56 9 12
56 10 1
56 11 6
56 13 4
56 14 2
56 15 9
56 16 3
56 19 11
56 20 6
56 22 2
56 23 11
56 24 7
56 26 6
56 28 3
56 29 9
56 31 12
56 32 7
56 33 2
56 34 12
56 40 7
56 41 13
56 42 3
56 46 5
56 48 3
56 52 13
56 53 5
56 54 3
57 10 4
57 22 1
57 24 5
57 26 9
57 27 7
57 28 2
57 32 13
57 33 5
57 35 12
57 36 2
57 37 7
57 39 10
57 41 5
57 42 6
57 43 6
57 44 13
57 47 10
57 51 13
58 0 3
58 4 4
58 6 9
58 7 9
58 9 3
58 11 5
58 12 1
58 13 7
58 14 1
58 15 11
58 18 7
58 19 11
58 20 6
58 22 12
58 24 3
58 25 1
58 26 7
58 27 2
58 31 8
58 32 4
58 34 6
58 35 4
58 36 1
58 39 4
58 45 10
58 47 2
58 48 3
58 50 4
58 53 4
58 54 4
59 1 13
59 2 11
59 5 10
59 8 12
59 10 2
59 12 5
59 13 13
59 14 4
59 21 7
59 23 10
59 24 6
59 27 5
59 30 9
59 34 2
59 39 9
59 42 6
59 43 13
59 46 9
59 47 10
59 49 3
59 50 8
59 53 11
59 54 2
59 58 9
60 0 4
60 2 11
60 3 5
60 4 13
60 6 13
60 9 1
60 13 12
60 14 2
60 15 11
60 16 3
60 17 9
60 19 1
60 22 10
60 23 2
60 27 7
60 29 11
60 30 8
60 35 7
60 37 10
60 38 12
60 41 9
60 44 8
60 45 11
60 46 7
60 48 8
60 49 4
60 51 13
60 54 5
61 2 3
61 3 1
61 7 5
61 9 5
61 10 7
61 12 8
61 13 8
61 14 5
61 15 8
61 16 5
61 17 6
61 18 4
61 19 9
61 21 8
61 23 12
61 24 12
61 25 11
61 26 8
61 33 9
61 34 1
61 37 2
61 38 1
61 41 9
61 44 9
61 46 1
61 47 11
61 50 4
61 55 2
61 56 2
61 58 3
61 59 2
61 60 11
62 1 3
62 2 1
62 3 9
62 4 8
62 8 7
62 12 11
62 13 1
62 16 8
62 18 6
62 19 1
62 21 3
62 22 10
62 23 9
62 25 10
62 27 11
62 30 8
62 33 4
62 34 10
62 39 2
62 40 6
62 41 10
62 42 5
62 43 6
62 47 13
62 48 1
62 49 2
62 51 13
62 52 6
62 53 12
62 54 4
62 55 4
62 56 7
62 59 12
62 60 11
63 0 1
63 1 11
63 2 2
63 3 9
63 4 10
63 6 4
63 7 13
63 8 4
63 11 5
63 12 4
63 15 8
63 16 7
63 17 11
63 19 11
63 20 8
63 21 5
63 24 13
63 25 2
63 28 8
63 31 5
63 33 11
63 38 2
63 39 4
63 40 6
63 44 11
63 45 3
63 46 13
63 49 13
63 53 12
63 56 11
63 57 7
63 58 6
63 60 11
63 61 2
64 1 11
64 4 3
64 5 1
64 7 12
64 8 10
64 10 9
64 12 5
64 13 2
64 16 7
64 18 11
64 19 1
64 21 3
64 23 8
64 28 12
64 29 8
64 31 11
64 32 1
64 33 9
64 34 4
64 35 10
64 36 5
64 39 9
64 43 5
64 45 12
64 46 13
64 50 12
64 51 10
64 53 2
64 55 8
64 56 6
64 57 13
64 59 1
64 60 4
